161 300 80 75 93 61 59 57 77 99 99 57 50 64 95 75 51 61 87 69 86 94 50 69 56 78 73 81 99 79 92 82 66 72 82 59 83 65 66 84 63 89 66 63 77 60 89 78 72 100 71 82 67 97 76 73 99 99 78 97 78 69 52 68 65 84 77 72 99 67 56 87 55 72 100 56 56 62 85 52 86 80 85 52 76 60 75 74 83 77 95 85 71 98 53 86 55 80 58 79 72 89 65 51 60 89 58 91 76 67 94 61 97 52 64 73 87 63 71 69 65 66 54 86 88 57 71 67 61 53 96 83 92 85 59 76 99 67 67 74 84 85 59 80 87 98 77 98 61 73 66 76 63 95 86 50 76 81 92 62 85 88 69 